p cnf 27 172
1 2 3 4 0
1 2 3 5 0
1 2 3 6 0
1 2 3 0
1 2 4 5 0
1 2 4 6 0
1 2 4 0
1 2 5 6 0
1 2 5 0
1 2 6 0
1 3 4 5 0
1 3 4 6 0
1 3 4 0
1 3 5 6 0
1 3 5 0
1 3 6 0
1 4 5 6 0
1 4 5 0
1 4 6 0
1 5 6 0
2 3 4 5 0
2 3 4 6 0
2 3 4 0
2 3 5 6 0
2 3 5 0
2 3 6 0
2 4 5 6 0
2 4 5 0
2 4 6 0
2 5 6 0
3 4 5 6 0
3 4 5 0
3 4 6 0
3 5 6 0
4 5 6 0
7 8 9 10 0
7 8 9 11 0
7 8 9 12 0
7 8 9 13 0
7 8 10 11 0
7 8 10 12 0
7 8 10 13 0
7 8 11 12 0
7 8 11 13 0
7 8 12 13 0
7 9 10 11 0
7 9 10 12 0
7 9 10 13 0
7 9 11 12 0
7 9 11 13 0
7 9 12 13 0
7 10 11 12 0
7 10 11 13 0
7 10 12 13 0
7 11 12 13 0
8 9 10 11 0
8 9 10 12 0
8 9 10 13 0
8 9 11 12 0
8 9 11 13 0
8 9 12 13 0
8 10 11 12 0
8 10 11 13 0
8 10 12 13 0
8 11 12 13 0
9 10 11 12 0
9 10 11 13 0
9 10 12 13 0
9 11 12 13 0
10 11 12 13 0
14 15 16 17 0
14 15 16 18 0
14 15 16 19 0
14 15 17 18 0
14 15 17 19 0
14 15 18 19 0
14 15 16 17 18 0
14 15 16 17 19 0
14 15 16 18 19 0
14 15 17 18 19 0
14 16 17 18 0
14 16 17 19 0
14 16 18 19 0
14 17 18 19 0
14 16 17 18 19 0
15 16 17 18 0
15 16 17 19 0
15 16 18 19 0
15 17 18 19 0
15 16 17 18 19 0
16 17 18 19 0
20 21 22 23 24 0
20 21 22 23 25 0
20 21 22 23 26 0
20 21 22 23 27 0
20 21 22 24 25 0
20 21 22 24 26 0
20 21 22 24 27 0
20 21 22 25 26 0
20 21 22 25 27 0
20 21 22 26 27 0
20 21 23 24 25 0
20 21 23 24 26 0
20 21 23 24 27 0
20 21 23 25 26 0
20 21 23 25 27 0
20 21 23 26 27 0
20 21 24 25 26 0
20 21 24 25 27 0
20 21 24 26 27 0
20 21 25 26 27 0
20 22 23 24 25 0
20 22 23 24 26 0
20 22 23 24 27 0
20 22 23 25 26 0
20 22 23 25 27 0
20 22 23 26 27 0
20 22 24 25 26 0
20 22 24 25 27 0
20 22 24 26 27 0
20 22 25 26 27 0
20 23 24 25 26 0
20 23 24 25 27 0
20 23 24 26 27 0
20 23 25 26 27 0
20 24 25 26 27 0
21 22 23 24 25 0
21 22 23 24 26 0
21 22 23 24 27 0
21 22 23 25 26 0
21 22 23 25 27 0
21 22 23 26 27 0
21 22 24 25 26 0
21 22 24 25 27 0
21 22 24 26 27 0
21 22 25 26 27 0
21 23 24 25 26 0
21 23 24 25 27 0
21 23 24 26 27 0
21 23 25 26 27 0
21 24 25 26 27 0
22 23 24 25 26 0
22 23 24 25 27 0
22 23 24 26 27 0
22 23 25 26 27 0
22 24 25 26 27 0
23 24 25 26 27 0
-1 -7 -14 0
-1 -7 -20 0
-1 -14 -20 0
-7 -14 -20 0
-2 -15 0
-2 -21 0
-15 -21 0
-8 -22 0
-3 -9 -16 0
-3 -9 -23 0
-3 -16 -23 0
-9 -16 -23 0
-4 -10 0
-4 -10 -24 0
-4 -24 0
-10 -24 0
-5 -11 -17 0
-5 -11 -25 0
-5 -17 -25 0
-11 -17 -25 0
-6 -12 -18 0
-6 -12 -26 0
-6 -18 -26 0
-12 -18 -26 0
-13 -19 -27 0
